
-7.46
-7.3
-7.14
-6.98
-6.9
-6.86
-6.72
-6.64
-6.52
-6.48
-6.48
-6.42
-6.4
-6.26
-6.18
-6.16
-6.1
-6.08
-6.02
-6.02
-6.02
-6.02
-6.02
-5.98
-5.98
-5.98
-5.98
-5.98
-5.98
-5.98
-5.98
-5.98
-5.98
-5.98
-5.98
-5.98
-5.98
-5.98
-5.98